20:22:48 | INFO    | Run started | run_id: SR_SV_WT_case1_P5_eps9999 | log file: C:\Users\Asus\Documents\GitHub\logistics-model2\internal-logistics-model2\results\SR_SV_WT\case1\SR_SV_WT_case1_P5_eps9999_2026_05_04_20_22.log
20:22:48 | INFO    | Products loaded | sheet=case1 | rows=10
20:22:48 | INFO    | Data loaded | |N|=26 |Nw|=25 |K|=1 |R|=1 |P|=5 | U=25
20:22:48 | INFO    | Big-M | time=491.0 precedence=480.0 wait=465.0 load_lb=20 load_ub=20
20:22:48 | INFO    | Set parameter Username
20:22:48 | INFO    | Set parameter LicenseID to value 2811848
20:22:48 | INFO    | Academic license - for non-commercial use only - expires 2027-04-22
20:22:48 | INFO    | Objective set | primary: min total_wait | tie-break weight on route_duration: 0.001
20:22:48 | INFO    | Constraint (3) added | route_duration <= 9999
20:22:48 | INFO    | Constraints (4)-(9) added | route structure
20:22:48 | INFO    | Constraints (10)-(12) added | product assignment
20:22:48 | INFO    | Constraints (13)-(15) added | route timing
20:22:48 | INFO    | Constraints (16) added | time consistency
20:22:48 | INFO    | Constraints (17)-(19) added | service times
20:22:48 | INFO    | Constraints (20)-(22) added | precedence, route closure, waiting
20:22:48 | INFO    | Constraints (23)-(27) added | load propagation
20:22:48 | INFO    | Constraints (28)-(32) added | MTZ and route ordering
20:22:48 | INFO    | Set parameter TimeLimit to value 600
20:22:48 | INFO    | Set parameter MIPGap to value 0.01
20:22:48 | INFO    | Set parameter Presolve to value 2
20:22:48 | INFO    | Set parameter LogFile to value "C:\Users\Asus\Documents\GitHub\logistics-model2\internal-logistics-model2\results\SR_SV_WT\case1\result_SR_SV_WT_case1_P5_eps9999_2026_05_04_20_22.log"
20:22:48 | INFO    | Solver configured | TimeLimit=600s | MIPGap=0.01 | gurobi_log=C:\Users\Asus\Documents\GitHub\logistics-model2\internal-logistics-model2\results\SR_SV_WT\case1\result_SR_SV_WT_case1_P5_eps9999_2026_05_04_20_22.log
20:22:48 | INFO    | Optimization starting...
20:22:48 | INFO    | Gurobi Optimizer version 12.0.0 build v12.0.0rc1 (win64 - Windows 10.0 (19045.2))
20:22:48 | INFO    | 
20:22:48 | INFO    | CPU model: 12th Gen Intel(R) Core(TM) i7-12650H, instruction set [SSE2|AVX|AVX2]
20:22:48 | INFO    | Thread count: 10 physical cores, 16 logical processors, using up to 16 threads
20:22:48 | INFO    | 
20:22:48 | INFO    | Non-default parameters:
20:22:48 | INFO    | TimeLimit  600
20:22:48 | INFO    | MIPGap  0.01
20:22:48 | INFO    | Presolve  2
20:22:48 | INFO    | 
20:22:48 | INFO    | Optimize a model with 2717 rows, 813 columns and 13585 nonzeros
20:22:48 | INFO    | Model fingerprint: 0x1e88bfbd
20:22:48 | INFO    | Variable types: 133 continuous, 680 integer (655 binary)
20:22:48 | INFO    | Coefficient statistics:
20:22:48 | INFO    |   Matrix range     [1e+00, 5e+02]
20:22:48 | INFO    |   Objective range  [1e-03, 1e+00]
20:22:48 | INFO    |   Bounds range     [1e+00, 3e+01]
20:22:48 | INFO    |   RHS range        [1e+00, 1e+04]
20:22:48 | INFO    | Presolve removed 2299 rows and 665 columns
20:22:48 | INFO    | Presolve time: 0.01s
20:22:48 | INFO    | Presolved: 418 rows, 148 columns, 2056 nonzeros
20:22:48 | INFO    | Variable types: 33 continuous, 115 integer (105 binary)
20:22:48 | INFO    | Root relaxation presolve removed 12 rows and 0 columns
20:22:48 | INFO    | Root relaxation presolved: 406 rows, 159 columns, 2034 nonzeros
20:22:48 | INFO    | 
20:22:48 | INFO    | 
20:22:48 | INFO    | Root relaxation: objective 1.500000e+01, 85 iterations, 0.00 seconds (0.00 work units)
20:22:48 | INFO    | 
20:22:48 | INFO    |     Nodes    |    Current Node    |     Objective Bounds      |     Work
20:22:48 | INFO    |  Expl Unexpl |  Obj  Depth IntInf | Incumbent    BestBd   Gap | It/Node Time
20:22:48 | INFO    | 
20:22:48 | INFO    |      0     0   15.00000    0   12          -   15.00000      -     -    0s
20:22:48 | INFO    | H    0     0                     247.9990000   15.00000  94.0%     -    0s
20:22:48 | INFO    |      0     0   15.00000    0   27  247.99900   15.00000  94.0%     -    0s
20:22:48 | INFO    | H    0     0                     209.1010000   15.00000  92.8%     -    0s
20:22:48 | INFO    |      0     0   15.00000    0   15  209.10100   15.00000  92.8%     -    0s
20:22:48 | INFO    | H    0     0                     185.0930000   15.00000  91.9%     -    0s
20:22:48 | INFO    |      0     0   15.00000    0   31  185.09300   15.00000  91.9%     -    0s
20:22:48 | INFO    |      0     0   17.27481    0   27  185.09300   17.27481  90.7%     -    0s
20:22:48 | INFO    |      0     0   17.99320    0   34  185.09300   17.99320  90.3%     -    0s
20:22:48 | INFO    |      0     0   24.04244    0   32  185.09300   24.04244  87.0%     -    0s
20:22:48 | INFO    |      0     0   24.16532    0   15  185.09300   24.16532  86.9%     -    0s
20:22:48 | INFO    |      0     0   24.31538    0   50  185.09300   24.31538  86.9%     -    0s
20:22:48 | INFO    |      0     0   24.62429    0   41  185.09300   24.62429  86.7%     -    0s
20:22:48 | INFO    |      0     0   24.63807    0   42  185.09300   24.63807  86.7%     -    0s
20:22:48 | INFO    |      0     0   24.63807    0   42  185.09300   24.63807  86.7%     -    0s
20:22:48 | INFO    |      0     0   29.33924    0   38  185.09300   29.33924  84.1%     -    0s
20:22:48 | INFO    |      0     0   29.83561    0   42  185.09300   29.83561  83.9%     -    0s
20:22:48 | INFO    |      0     0   29.83561    0   42  185.09300   29.83561  83.9%     -    0s
20:22:48 | INFO    |      0     0   30.38918    0   42  185.09300   30.38918  83.6%     -    0s
20:22:48 | INFO    |      0     0   30.94522    0   42  185.09300   30.94522  83.3%     -    0s
20:22:48 | INFO    |      0     0   30.94522    0   40  185.09300   30.94522  83.3%     -    0s
20:22:48 | INFO    | H    0     0                     131.0890000   30.94522  76.4%     -    0s
20:22:48 | INFO    |      0     0   30.94522    0   40  131.08900   30.94522  76.4%     -    0s
20:22:48 | INFO    |      0     0   30.94522    0   43  131.08900   30.94522  76.4%     -    0s
20:22:48 | INFO    |      0     0   30.94522    0   42  131.08900   30.94522  76.4%     -    0s
20:22:48 | INFO    |      0     0   30.94522    0   40  131.08900   30.94522  76.4%     -    0s
20:22:48 | INFO    |      0     2   30.94522    0   38  131.08900   30.94522  76.4%     -    0s
20:22:48 | INFO    | H   31    76                     101.0860000   33.70956  66.7%  25.4    0s
20:22:48 | INFO    | H  120   125                      96.0840000   35.00000  63.6%  18.1    0s
20:22:48 | INFO    | H  240   230                      89.0810000   37.49133  57.9%  15.0    0s
20:22:49 | INFO    | 
20:22:49 | INFO    | Cutting planes:
20:22:49 | INFO    |   Learned: 13
20:22:49 | INFO    |   Gomory: 14
20:22:49 | INFO    |   Cover: 5
20:22:49 | INFO    |   Implied bound: 41
20:22:49 | INFO    |   MIR: 42
20:22:49 | INFO    |   StrongCG: 2
20:22:49 | INFO    |   Flow cover: 92
20:22:49 | INFO    |   Inf proof: 8
20:22:49 | INFO    |   RLT: 14
20:22:49 | INFO    |   Relax-and-lift: 27
20:22:49 | INFO    |   PSD: 1
20:22:49 | INFO    | 
20:22:49 | INFO    | Explored 17995 nodes (258831 simplex iterations) in 1.58 seconds (1.58 work units)
20:22:49 | INFO    | Thread count was 16 (of 16 available processors)
20:22:49 | INFO    | 
20:22:49 | INFO    | Solution count 7: 89.081 96.084 101.086 ... 247.999
20:22:49 | INFO    | 
20:22:49 | INFO    | Optimal solution found (tolerance 1.00e-02)
20:22:49 | INFO    | Best objective 8.908100000000e+01, best bound 8.908100000000e+01, gap 0.0000%
20:22:49 | INFO    | Solution found | total_wait=89.00 | route_duration=81.00
20:22:49 | INFO    | Objective=89.08 | runtime=1.58s | MIP Gap=0.00%
20:22:49 | INFO    | Generating Excel output | C:\Users\Asus\Documents\GitHub\logistics-model2\internal-logistics-model2\results\SR_SV_WT\case1\result_SR_SV_WT_case1_P5_eps9999_2026_05_04_20_22.xlsx
20:22:50 | INFO    | Excel output written | 12 sheets | C:\Users\Asus\Documents\GitHub\logistics-model2\internal-logistics-model2\results\SR_SV_WT\case1\result_SR_SV_WT_case1_P5_eps9999_2026_05_04_20_22.xlsx
20:22:50 | INFO    | Master Pareto updated | 5 total rows | C:\Users\Asus\Documents\GitHub\logistics-model2\internal-logistics-model2\results\master_pareto.xlsx
20:22:50 | INFO    | Run complete | run_id=SR_SV_WT_case1_P5_eps9999
